13 13
9
3 3 0 4
3 4 0 0
3 5 10 0
3 6 7 7
3 7 3 0
3 8 10 5
4 3 6 4
4 4 6 0
7 6 0 7
% time elapsed: 0.09 s
% time elapsed: 0.09 s
%%%mzn-stat: initTime=0.000256
%%%mzn-stat: solveTime=0.005479
%%%mzn-stat: solutions=26
%%%mzn-stat: variables=19
%%%mzn-stat: propagators=14
%%%mzn-stat: propagations=9917
%%%mzn-stat: nodes=1715
%%%mzn-stat: failures=630
%%%mzn-stat: restarts=28
%%%mzn-stat: peakDepth=24
%%%mzn-stat-end
